peakDumbCharging = 22200; 
Machine = anon_enum(16); 
machineSpeed = [3700,3700,3700,3700,3700,3700,3700,3700,3700,3700,3700,3700,3700,3700,3700,3700]; 
machineLoad = [3700,3700,3700,3700,3700,3700,3700,3700,3700,3700,3700,3700,3700,3700,3700,3700]; 
Car = anon_enum(26); 
demandCar = [5600,6120,31640,7200,24800,4480,1280,1680,4360,10680,7560,20720,3000,27920,3960,14600,7800,80,1600,14680,5400,12640,7960,9600,10000,2480]; 
arrivalCar = [74,73,71,70,69,68,67,64,63,62,59,59,59,58,58,55,54,51,51,50,47,47,44,41,40,12]; 
departureCar = [77,76,82,73,77,70,70,66,67,67,63,66,61,69,62,63,57,52,52,57,51,54,48,47,44,13]; 
